proyfinal/src/viki/013/experimentInOfficeAgust.take6.output/188f2104-1fc3-4154-896c-b4ee5f03bf2e.als.out
Reading from standard input... Use '--help' for help.
============================[ Problem Statistics ]=============================
|                                                                             |
|  Number of variables:         87638                                         |
|  Number of clauses:          161767                                         |
|  Parse time:                   0.04 s                                       |
|                                                                             |
============================[ Search Statistics ]==============================
| Conflicts |          ORIGINAL         |          LEARNT          | Progress |
|           |    Vars  Clauses Literals |    Limit  Clauses Lit/Cl |          |
===============================================================================
|       100 |   62712   106365   265804 |    39000      100     10 | 28.442 % |
|       250 |   62712   106365   265804 |    42900      250     32 | 28.442 % |
|       475 |   62712   106365   265804 |    47190      475     69 | 28.442 % |
|       812 |   62666   106321   265714 |    51909      805     70 | 28.494 % |
|      1318 |   62646   106156   265278 |    57100     1289     96 | 28.517 % |
|      2077 |   62646   106072   265085 |    62810     2048     84 | 28.517 % |
|      3216 |   62628   105998   264914 |    69091     3186     87 | 28.538 % |
|      4924 |   62516   105545   263843 |    76000     4883     87 | 28.666 % |
|      7486 |   62488   105434   263573 |    83601     7364     85 | 28.698 % |
|     11330 |   49336    66496   168057 |    91961    10244     87 | 43.705 % |
===============================================================================
restarts              : 62
conflicts             : 15818          (6612 /sec)
decisions             : 53765          (0.00 % random) (22474 /sec)
propagations          : 22889390       (9567695 /sec)
conflict literals     : 1161894        (48.40 % deleted)
Memory used           : 36.17 MB
CPU time              : 2.39236 s

UNSATISFIABLE
